pair_coeff 1 1 indicator lucy 0.0 5.26850 self yes potential quadratic 1 1 1
