# pouring spheres into box made of triangles

units           lj
atom_style      tri
atom_modify     map array
boundary        f f f
dimension       3
comm_modify     vel yes

region          box block -7 7 -7 7 0 9 units box
create_box      2 box

fix             20 all surface/local input stl 2 surf.tri.stl

pair_style      hybrid granular surf/granular
pair_coeff      1 1 granular hooke 4000.0 100.0 &
                         tangential linear_history 1000.0 1.0 0.5 &
                         damping mass_velocity
pair_coeff      1 2 surf/granular hooke 4000.0 100.0 &
                         tangential linear_history 1000.0 1.0 0.5 &
                         damping mass_velocity
pair_coeff      2 2 none


group           sphere type 1
group           tri type 2

neighbor        0.3 bin
neigh_modify    delay 0 every 1 check yes

fix             2 sphere nve/sphere
fix             3 sphere gravity 1.0 vector 0 0 -1

region          slab block -2 2 -2 2 7 9 units box
fix             ins sphere pour 100 1 4767548 vol 0.4 10 &
                diam one 1.0 region slab ignore

region          zcylinder cylinder z 0 0 7.0 INF INF units box
fix             wall sphere wall/gran/region granular hooke 4000.0 100.0 &
                         tangential linear_history 1000.0 1.0 0.5 &
                         damping mass_velocity &
                         region zcylinder

timestep        0.005

compute         1 sphere temp
compute_modify  1 dynamic/dof yes

compute         2 sphere temp/sphere
compute_modify  2 dynamic/dof yes

thermo          100
thermo_style    custom step atoms temp c_1 c_2 press
thermo_modify   lost ignore
compute_modify  thermo_temp dynamic/dof yes

#dump           2 all image 100 tmp.image.*.ppm type type &
#               zoom 1.4 adiam 1.0 tri type 2 0.2
#dump_modify        2 pad 5

run             5000

fix             1 tri move rotate 0 0 0 0 0 1 25
run             5000

unfix           1
set             group tri angmom 0.0 0.0 0.0
velocity        tri set 0.0 0.0 0.0
run             5000
