variable  newton_pair  index  on
variable  newton_bond  index  on
variable  units        index  lj
variable  input_dir    index  .
variable  data_file    index  ${input_dir}/data.ellipsoid
variable  pair_style   index  'zero 8.0'

atom_style       ellipsoid
atom_modify      map array
neigh_modify     delay 2 every 2 check no
units            ${units}
timestep         0.001
newton           ${newton_pair}

pair_style       ${pair_style}
read_data        ${data_file}
