pair_coeff 1 1  indicator shell    0.4 1.0 self yes potential linear -1 0.0
pair_coeff 1 2  indicator sphere     0.25 0.5 self no  potential linear -1 0.0 
pair_coeff 2 1  indicator smooth  0.2 0.55 self no potential linear  -1 0
pair_coeff 2 2  indicator shell    0.0 0.65 self no potential linear -1 0
