pair_coeff  1 1  indicator lucy    0.0 0.65 self yes potential mdpd 25
pair_coeff  1 2  indicator dpd     0.0 0.65 self no  potential mdpd 10
pair_coeff  2 1  indicator sphere  0.0 0.55 self no potential mdpd 10
pair_coeff  2 2  indicator lucy    0.0 0.65 self no potential mdpd 15
