# DATE:2026-02-24 UNITS: real CONTRIBUTOR: Maria Lesniewski, mjl6766@psu.edu, CITATION:M. C. Lesniewski, M. R. DeLyser, and W. G. Noid "Progress toward a better BOCS: systematic coarse-graining with local density potentials" Manuscript in Preparation (2026).  
pair_coeff  1 1  indicator lucy    0.0 0.65 self yes potential constant 0 gradient mdpd 4
pair_coeff  1 2  indicator dpd     0.0 0.65 self no  potential constant 0 gradient mdpd -1
pair_coeff  2 1  indicator sphere  0.0 0.55 self no potential constant 0 gradient mdpd 10
pair_coeff  2 2  indicator lucy    0.0 0.65 self no potential constant 0 gradient mdpd 3
