# temporary input for lammps
 
units     metal
atom_style full

boundary p p p
pair_style hybrid/overlay  lj/cut/coul/long 8.0 8.0 bondval 2.0 8.0 bondval/vec 2.0 8.0
read_data  cubic15final.data
kspace_style pppm 1.0e-4

#read_restart BTO.restart
pair_coeff 1 1 lj/cut/coul/long 2.0  2.44805
pair_coeff 1 2 lj/cut/coul/long 2.0  2.32592
pair_coeff 1 3 lj/cut/coul/long 2.0  1.98792
pair_coeff 2 2 lj/cut/coul/long 2.0  2.73825
pair_coeff 2 3 lj/cut/coul/long 2.0  1.37741
pair_coeff 3 3 lj/cut/coul/long 2.0  1.99269


#                   r0   Nij    S     v0 rcut
pair_coeff 1 1 bondval 0.0000000 5.0000000 0.5973900 2.0000000 8.0000000
pair_coeff 1 2 bondval 0.0000000 5.0000000 0.0000000 0.0000000 8.0000000
pair_coeff 1 3 bondval 2.2900000 8.9400000 0.0000000 0.0000000 8.0000000
pair_coeff 2 2 bondval 0.0000000 5.0000000 0.1653300 4.0000000 8.0000000
pair_coeff 2 3 bondval 1.7980000 5.2000000 0.0000000 0.0000000 8.0000000
pair_coeff 3 3 bondval 0.0000000 5.0000000 0.9306300 2.0000000 8.0000000


#                    r0  Nij     S     Bvv0  rcut
pair_coeff 1 1 bondval/vec 0.0000000 5.0000000 0.0842900 0.1156100 8.0000000
pair_coeff 1 2 bondval/vec 0.0000000 5.0000000 0.0000000 0.0000000 8.0000000
pair_coeff 1 3 bondval/vec 2.1430000 8.9400000 0.0000000 0.0000000 8.0000000
pair_coeff 2 2 bondval/vec 0.0000000 5.0000000 0.8248400 0.3943700 8.0000000
pair_coeff 2 3 bondval/vec 1.7980000 5.2000000 0.0000000 0.0000000 8.0000000
pair_coeff 3 3 bondval/vec 0.0000000 5.0000000 0.2800600 0.3165100 8.0000000

neighbor    2.0 bin
neigh_modify    delay 0 every 1000000 check no

# time unit fs
timestep     0.001
#group Pb id 1:512
#group Ti id 513:1024
#group O1 id 1025:1536
#group O2 id 1537:2048
#group O3 id 2049:2560

# Define computes for pair energy contributions
compute pairEnergy1 all pair lj/cut/coul/long
compute pairEnergy2 all pair bondval
compute pairEnergy3 all pair bondval/vec

thermo     10
thermo_style custom step temp c_pairEnergy1 c_pairEnergy2 c_pairEnergy3 eangle etotal press vol lx ly lz

thermo_modify line one format float %12.5f

#compute disp all displace/atom

#to equilibrate the system at a constant temperature using the NVT ensemble
fix 1 all nvt temp 300.0 300.0 1.0
run 500
#unfix 1
#to equilibrate the system at constant temperature and pressure using the NPT ensemble
#fix 2 all nvt temp 300.0 300.0 1.0
#dump 2 all custom 100 dumpbcubic15.xyz id type x y z c_disp[1] c_disp[2] c_disp[3] c_disp[4] 
#dump_modify 2 sort id
#run 50000
#unfix 2 

